784 1568
1 2 1
1 29 4
2 3 4
2 30 3
3 4 1
3 31 1
4 5 4
4 32 3
5 6 1
5 33 5
6 7 3
6 34 2
7 8 4
7 35 2
8 9 2
8 36 4
9 10 5
9 37 4
10 11 2
10 38 5
11 12 5
11 39 5
12 13 4
12 40 1
13 14 5
13 41 1
14 15 2
14 42 4
15 16 5
15 43 1
16 17 3
16 44 5
17 18 1
17 45 1
18 19 1
18 46 1
19 20 2
19 47 1
20 21 3
20 48 3
21 22 4
21 49 4
22 23 5
22 50 1
23 24 4
23 51 2
24 25 4
24 52 4
25 26 4
25 53 5
26 27 3
26 54 4
27 28 4
27 55 1
28 56 4
29 30 1
29 57 3
30 31 2
30 58 4
31 32 4
31 59 2
32 33 4
32 60 2
33 34 5
33 61 4
34 35 5
34 62 4
35 36 5
35 63 5
36 37 5
36 64 2
37 38 1
37 65 2
38 39 4
38 66 5
39 40 2
39 67 3
40 41 3
40 68 1
41 42 1
41 69 2
42 43 4
42 70 3
43 44 1
43 71 3
44 45 4
44 72 3
45 46 4
45 73 2
46 47 1
46 74 5
47 48 3
47 75 3
48 49 3
48 76 2
49 50 1
49 77 2
50 51 3
50 78 1
51 52 1
51 79 2
52 53 1
52 80 1
53 54 5
53 81 1
54 55 2
54 82 4
55 56 5
55 83 5
56 84 3
57 58 3
57 85 3
58 59 1
58 86 3
59 60 5
59 87 3
60 61 1
60 88 5
61 62 1
61 89 2
62 63 1
62 90 3
63 64 2
63 91 4
64 65 5
64 92 2
65 66 4
65 93 2
66 67 5
66 94 4
67 68 4
67 95 2
68 69 1
68 96 2
69 70 1
69 97 2
70 71 5
70 98 4
71 72 4
71 99 4
72 73 5
72 100 3
73 74 2
73 101 2
74 75 1
74 102 3
75 76 4
75 103 3
76 77 5
76 104 5
77 78 2
77 105 4
78 79 4
78 106 5
79 80 5
79 107 3
80 81 4
80 108 4
81 82 3
81 109 1
82 83 4
82 110 5
83 84 5
83 111 3
84 112 3
85 86 5
85 113 4
86 87 2
86 114 1
87 88 3
87 115 5
88 89 4
88 116 1
89 90 4
89 117 3
90 91 2
90 118 4
91 92 2
91 119 3
92 93 1
92 120 3
93 94 4
93 121 5
94 95 3
94 122 1
95 96 5
95 123 4
96 97 5
96 124 4
97 98 1
97 125 5
98 99 5
98 126 5
99 100 2
99 127 1
100 101 5
100 128 4
101 102 1
101 129 1
102 103 4
102 130 5
103 104 3
103 131 1
104 105 2
104 132 4
105 106 2
105 133 3
106 107 4
106 134 3
107 108 2
107 135 1
108 109 1
108 136 2
109 110 3
109 137 5
110 111 2
110 138 2
111 112 3
111 139 4
112 140 2
113 114 2
113 141 3
114 115 3
114 142 4
115 116 5
115 143 3
116 117 5
116 144 3
117 118 3
117 145 4
118 119 2
118 146 4
119 120 3
119 147 5
120 121 1
120 148 5
121 122 2
121 149 4
122 123 2
122 150 3
123 124 4
123 151 1
124 125 1
124 152 1
125 126 1
125 153 1
126 127 1
126 154 3
127 128 4
127 155 3
128 129 2
128 156 5
129 130 1
129 157 2
130 131 3
130 158 4
131 132 1
131 159 2
132 133 1
132 160 4
133 134 2
133 161 3
134 135 3
134 162 4
135 136 5
135 163 4
136 137 5
136 164 4
137 138 2
137 165 2
138 139 1
138 166 3
139 140 5
139 167 2
140 168 1
141 142 3
141 169 4
142 143 4
142 170 2
143 144 1
143 171 3
144 145 4
144 172 3
145 146 1
145 173 4
146 147 3
146 174 5
147 148 5
147 175 3
148 149 5
148 176 4
149 150 4
149 177 2
150 151 1
150 178 2
151 152 4
151 179 4
152 153 4
152 180 2
153 154 5
153 181 5
154 155 1
154 182 5
155 156 3
155 183 3
156 157 4
156 184 2
157 158 3
157 185 2
158 159 3
158 186 5
159 160 5
159 187 3
160 161 4
160 188 4
161 162 3
161 189 2
162 163 5
162 190 4
163 164 2
163 191 3
164 165 2
164 192 4
165 166 3
165 193 2
166 167 2
166 194 5
167 168 4
167 195 5
168 196 1
169 170 2
169 197 4
170 171 4
170 198 5
171 172 5
171 199 5
172 173 5
172 200 3
173 174 4
173 201 1
174 175 2
174 202 3
175 176 3
175 203 1
176 177 1
176 204 3
177 178 4
177 205 1
178 179 1
178 206 3
179 180 3
179 207 2
180 181 5
180 208 3
181 182 2
181 209 2
182 183 3
182 210 1
183 184 2
183 211 1
184 185 5
184 212 5
185 186 2
185 213 5
186 187 5
186 214 1
187 188 2
187 215 5
188 189 4
188 216 4
189 190 3
189 217 2
190 191 5
190 218 4
191 192 3
191 219 1
192 193 5
192 220 2
193 194 5
193 221 1
194 195 1
194 222 1
195 196 5
195 223 2
196 224 3
197 198 4
197 225 1
198 199 1
198 226 2
199 200 2
199 227 4
200 201 3
200 228 3
201 202 5
201 229 3
202 203 3
202 230 2
203 204 1
203 231 1
204 205 5
204 232 3
205 206 4
205 233 5
206 207 3
206 234 2
207 208 1
207 235 4
208 209 1
208 236 1
209 210 1
209 237 5
210 211 5
210 238 2
211 212 3
211 239 2
212 213 5
212 240 3
213 214 3
213 241 5
214 215 4
214 242 1
215 216 2
215 243 3
216 217 3
216 244 4
217 218 5
217 245 3
218 219 4
218 246 4
219 220 3
219 247 2
220 221 5
220 248 3
221 222 1
221 249 5
222 223 1
222 250 4
223 224 3
223 251 4
224 252 2
225 226 1
225 253 3
226 227 2
226 254 4
227 228 2
227 255 1
228 229 1
228 256 4
229 230 4
229 257 5
230 231 2
230 258 2
231 232 2
231 259 1
232 233 5
232 260 3
233 234 1
233 261 1
234 235 2
234 262 5
235 236 2
235 263 5
236 237 1
236 264 4
237 238 3
237 265 4
238 239 2
238 266 1
239 240 5
239 267 5
240 241 2
240 268 1
241 242 5
241 269 5
242 243 3
242 270 3
243 244 4
243 271 3
244 245 2
244 272 1
245 246 4
245 273 5
246 247 2
246 274 2
247 248 2
247 275 4
248 249 2
248 276 1
249 250 1
249 277 3
250 251 2
250 278 2
251 252 2
251 279 1
252 280 1
253 254 2
253 281 3
254 255 3
254 282 2
255 256 2
255 283 5
256 257 3
256 284 2
257 258 4
257 285 4
258 259 2
258 286 3
259 260 2
259 287 2
260 261 4
260 288 2
261 262 5
261 289 5
262 263 2
262 290 1
263 264 2
263 291 3
264 265 5
264 292 5
265 266 1
265 293 1
266 267 4
266 294 2
267 268 3
267 295 1
268 269 4
268 296 2
269 270 1
269 297 5
270 271 4
270 298 1
271 272 4
271 299 2
272 273 3
272 300 5
273 274 3
273 301 2
274 275 3
274 302 4
275 276 2
275 303 2
276 277 1
276 304 2
277 278 3
277 305 3
278 279 3
278 306 4
279 280 4
279 307 4
280 308 4
281 282 3
281 309 5
282 283 5
282 310 5
283 284 3
283 311 3
284 285 5
284 312 5
285 286 5
285 313 5
286 287 1
286 314 5
287 288 3
287 315 3
288 289 3
288 316 2
289 290 2
289 317 3
290 291 1
290 318 3
291 292 3
291 319 2
292 293 3
292 320 5
293 294 3
293 321 4
294 295 4
294 322 2
295 296 3
295 323 1
296 297 2
296 324 3
297 298 3
297 325 1
298 299 5
298 326 5
299 300 1
299 327 2
300 301 3
300 328 2
301 302 5
301 329 4
302 303 2
302 330 4
303 304 2
303 331 3
304 305 4
304 332 1
305 306 4
305 333 2
306 307 4
306 334 4
307 308 2
307 335 5
308 336 3
309 310 2
309 337 2
310 311 3
310 338 1
311 312 4
311 339 5
312 313 5
312 340 3
313 314 2
313 341 1
314 315 2
314 342 2
315 316 2
315 343 3
316 317 2
316 344 3
317 318 3
317 345 5
318 319 3
318 346 5
319 320 2
319 347 1
320 321 4
320 348 4
321 322 4
321 349 4
322 323 4
322 350 5
323 324 2
323 351 3
324 325 1
324 352 4
325 326 3
325 353 5
326 327 4
326 354 3
327 328 2
327 355 1
328 329 2
328 356 2
329 330 2
329 357 4
330 331 3
330 358 2
331 332 4
331 359 3
332 333 2
332 360 5
333 334 1
333 361 2
334 335 2
334 362 1
335 336 4
335 363 2
336 364 1
337 338 3
337 365 4
338 339 5
338 366 3
339 340 5
339 367 4
340 341 2
340 368 3
341 342 2
341 369 2
342 343 4
342 370 1
343 344 3
343 371 2
344 345 2
344 372 2
345 346 2
345 373 5
346 347 5
346 374 3
347 348 3
347 375 1
348 349 2
348 376 5
349 350 5
349 377 1
350 351 4
350 378 5
351 352 3
351 379 4
352 353 2
352 380 2
353 354 1
353 381 1
354 355 5
354 382 2
355 356 5
355 383 2
356 357 1
356 384 2
357 358 2
357 385 2
358 359 2
358 386 2
359 360 2
359 387 2
360 361 2
360 388 4
361 362 1
361 389 3
362 363 2
362 390 1
363 364 5
363 391 3
364 392 4
365 366 3
365 393 5
366 367 2
366 394 1
367 368 1
367 395 5
368 369 3
368 396 4
369 370 3
369 397 5
370 371 1
370 398 5
371 372 3
371 399 5
372 373 3
372 400 5
373 374 1
373 401 2
374 375 3
374 402 1
375 376 1
375 403 5
376 377 2
376 404 2
377 378 4
377 405 3
378 379 3
378 406 4
379 380 2
379 407 3
380 381 3
380 408 5
381 382 4
381 409 4
382 383 2
382 410 2
383 384 2
383 411 4
384 385 1
384 412 3
385 386 5
385 413 3
386 387 2
386 414 3
387 388 2
387 415 3
388 389 2
388 416 1
389 390 4
389 417 4
390 391 1
390 418 2
391 392 4
391 419 3
392 420 1
393 394 5
393 421 4
394 395 4
394 422 5
395 396 2
395 423 1
396 397 2
396 424 4
397 398 3
397 425 2
398 399 4
398 426 2
399 400 1
399 427 3
400 401 2
400 428 4
401 402 3
401 429 5
402 403 2
402 430 4
403 404 5
403 431 4
404 405 4
404 432 5
405 406 3
405 433 4
406 407 3
406 434 2
407 408 5
407 435 4
408 409 5
408 436 4
409 410 1
409 437 2
410 411 5
410 438 5
411 412 2
411 439 5
412 413 3
412 440 3
413 414 1
413 441 3
414 415 4
414 442 3
415 416 3
415 443 5
416 417 5
416 444 5
417 418 1
417 445 1
418 419 2
418 446 5
419 420 5
419 447 4
420 448 4
421 422 3
421 449 1
422 423 5
422 450 3
423 424 5
423 451 5
424 425 2
424 452 4
425 426 4
425 453 4
426 427 1
426 454 3
427 428 3
427 455 1
428 429 1
428 456 2
429 430 1
429 457 2
430 431 3
430 458 5
431 432 4
431 459 5
432 433 4
432 460 2
433 434 1
433 461 5
434 435 1
434 462 1
435 436 3
435 463 4
436 437 2
436 464 1
437 438 4
437 465 2
438 439 3
438 466 4
439 440 4
439 467 4
440 441 2
440 468 1
441 442 2
441 469 2
442 443 1
442 470 1
443 444 4
443 471 2
444 445 2
444 472 2
445 446 2
445 473 4
446 447 4
446 474 2
447 448 4
447 475 3
448 476 3
449 450 2
449 477 3
450 451 1
450 478 4
451 452 3
451 479 1
452 453 4
452 480 3
453 454 5
453 481 3
454 455 2
454 482 2
455 456 1
455 483 2
456 457 4
456 484 3
457 458 5
457 485 5
458 459 5
458 486 5
459 460 1
459 487 4
460 461 4
460 488 3
461 462 3
461 489 1
462 463 3
462 490 3
463 464 4
463 491 3
464 465 2
464 492 3
465 466 2
465 493 3
466 467 3
466 494 4
467 468 2
467 495 3
468 469 4
468 496 5
469 470 3
469 497 3
470 471 5
470 498 5
471 472 3
471 499 5
472 473 1
472 500 2
473 474 5
473 501 4
474 475 5
474 502 2
475 476 2
475 503 1
476 504 4
477 478 2
477 505 2
478 479 4
478 506 2
479 480 4
479 507 4
480 481 2
480 508 3
481 482 1
481 509 2
482 483 3
482 510 4
483 484 5
483 511 1
484 485 4
484 512 3
485 486 3
485 513 2
486 487 4
486 514 3
487 488 4
487 515 1
488 489 2
488 516 1
489 490 1
489 517 3
490 491 3
490 518 5
491 492 1
491 519 5
492 493 2
492 520 5
493 494 3
493 521 3
494 495 1
494 522 2
495 496 2
495 523 1
496 497 3
496 524 5
497 498 1
497 525 5
498 499 2
498 526 2
499 500 2
499 527 1
500 501 1
500 528 5
501 502 1
501 529 3
502 503 3
502 530 5
503 504 1
503 531 2
504 532 5
505 506 4
505 533 1
506 507 3
506 534 1
507 508 5
507 535 5
508 509 3
508 536 1
509 510 3
509 537 1
510 511 3
510 538 3
511 512 1
511 539 1
512 513 3
512 540 4
513 514 5
513 541 3
514 515 2
514 542 3
515 516 2
515 543 5
516 517 5
516 544 3
517 518 5
517 545 5
518 519 5
518 546 4
519 520 4
519 547 1
520 521 4
520 548 2
521 522 1
521 549 3
522 523 3
522 550 3
523 524 1
523 551 5
524 525 3
524 552 1
525 526 1
525 553 1
526 527 1
526 554 1
527 528 2
527 555 5
528 529 3
528 556 3
529 530 5
529 557 3
530 531 1
530 558 4
531 532 4
531 559 1
532 560 4
533 534 2
533 561 1
534 535 3
534 562 3
535 536 4
535 563 5
536 537 5
536 564 2
537 538 3
537 565 1
538 539 5
538 566 3
539 540 3
539 567 3
540 541 5
540 568 3
541 542 2
541 569 5
542 543 2
542 570 2
543 544 4
543 571 3
544 545 3
544 572 3
545 546 5
545 573 3
546 547 2
546 574 5
547 548 4
547 575 1
548 549 5
548 576 1
549 550 5
549 577 3
550 551 2
550 578 1
551 552 1
551 579 5
552 553 1
552 580 2
553 554 3
553 581 5
554 555 1
554 582 2
555 556 2
555 583 3
556 557 2
556 584 1
557 558 4
557 585 1
558 559 2
558 586 1
559 560 1
559 587 1
560 588 4
561 562 5
561 589 5
562 563 1
562 590 4
563 564 5
563 591 3
564 565 1
564 592 2
565 566 4
565 593 2
566 567 2
566 594 2
567 568 4
567 595 1
568 569 1
568 596 3
569 570 4
569 597 2
570 571 4
570 598 2
571 572 1
571 599 3
572 573 2
572 600 1
573 574 4
573 601 4
574 575 3
574 602 3
575 576 5
575 603 3
576 577 1
576 604 3
577 578 2
577 605 1
578 579 5
578 606 5
579 580 2
579 607 1
580 581 4
580 608 5
581 582 1
581 609 5
582 583 1
582 610 2
583 584 3
583 611 1
584 585 5
584 612 2
585 586 2
585 613 2
586 587 2
586 614 1
587 588 3
587 615 2
588 616 2
589 590 2
589 617 4
590 591 3
590 618 1
591 592 2
591 619 2
592 593 3
592 620 1
593 594 3
593 621 2
594 595 3
594 622 4
595 596 1
595 623 3
596 597 5
596 624 5
597 598 2
597 625 1
598 599 1
598 626 3
599 600 5
599 627 1
600 601 2
600 628 2
601 602 3
601 629 2
602 603 5
602 630 4
603 604 2
603 631 1
604 605 5
604 632 2
605 606 2
605 633 5
606 607 1
606 634 3
607 608 3
607 635 4
608 609 5
608 636 3
609 610 1
609 637 2
610 611 4
610 638 2
611 612 2
611 639 3
612 613 4
612 640 4
613 614 5
613 641 1
614 615 2
614 642 2
615 616 5
615 643 1
616 644 4
617 618 3
617 645 5
618 619 4
618 646 5
619 620 4
619 647 3
620 621 2
620 648 4
621 622 3
621 649 1
622 623 1
622 650 1
623 624 5
623 651 5
624 625 2
624 652 1
625 626 1
625 653 5
626 627 1
626 654 3
627 628 3
627 655 3
628 629 2
628 656 4
629 630 1
629 657 5
630 631 5
630 658 4
631 632 1
631 659 4
632 633 4
632 660 2
633 634 3
633 661 1
634 635 4
634 662 5
635 636 3
635 663 5
636 637 2
636 664 5
637 638 2
637 665 1
638 639 4
638 666 4
639 640 5
639 667 5
640 641 3
640 668 2
641 642 2
641 669 4
642 643 1
642 670 2
643 644 4
643 671 3
644 672 2
645 646 3
645 673 5
646 647 5
646 674 3
647 648 3
647 675 3
648 649 2
648 676 3
649 650 5
649 677 2
650 651 3
650 678 1
651 652 1
651 679 2
652 653 4
652 680 3
653 654 3
653 681 5
654 655 4
654 682 3
655 656 3
655 683 3
656 657 1
656 684 1
657 658 5
657 685 5
658 659 5
658 686 5
659 660 1
659 687 2
660 661 2
660 688 5
661 662 2
661 689 5
662 663 3
662 690 3
663 664 5
663 691 1
664 665 5
664 692 1
665 666 1
665 693 4
666 667 2
666 694 3
667 668 3
667 695 3
668 669 3
668 696 1
669 670 4
669 697 2
670 671 4
670 698 1
671 672 1
671 699 5
672 700 2
673 674 2
673 701 1
674 675 3
674 702 1
675 676 3
675 703 2
676 677 4
676 704 2
677 678 5
677 705 1
678 679 5
678 706 4
679 680 2
679 707 2
680 681 1
680 708 2
681 682 1
681 709 1
682 683 5
682 710 4
683 684 3
683 711 2
684 685 5
684 712 3
685 686 1
685 713 3
686 687 3
686 714 3
687 688 1
687 715 5
688 689 4
688 716 3
689 690 5
689 717 2
690 691 4
690 718 5
691 692 3
691 719 1
692 693 5
692 720 1
693 694 3
693 721 5
694 695 3
694 722 3
695 696 5
695 723 1
696 697 4
696 724 1
697 698 4
697 725 5
698 699 1
698 726 2
699 700 4
699 727 5
700 728 5
701 702 4
701 729 2
702 703 3
702 730 1
703 704 5
703 731 4
704 705 3
704 732 2
705 706 3
705 733 3
706 707 2
706 734 3
707 708 5
707 735 3
708 709 3
708 736 1
709 710 1
709 737 2
710 711 4
710 738 3
711 712 5
711 739 3
712 713 2
712 740 2
713 714 3
713 741 5
714 715 3
714 742 2
715 716 5
715 743 1
716 717 4
716 744 5
717 718 4
717 745 5
718 719 2
718 746 1
719 720 2
719 747 3
720 721 1
720 748 5
721 722 1
721 749 2
722 723 5
722 750 1
723 724 2
723 751 2
724 725 3
724 752 1
725 726 4
725 753 2
726 727 5
726 754 4
727 728 4
727 755 3
728 756 5
729 730 1
729 757 2
730 731 3
730 758 2
731 732 1
731 759 3
732 733 4
732 760 3
733 734 5
733 761 4
734 735 2
734 762 4
735 736 2
735 763 5
736 737 2
736 764 2
737 738 1
737 765 2
738 739 3
738 766 3
739 740 2
739 767 3
740 741 5
740 768 4
741 742 4
741 769 3
742 743 3
742 770 4
743 744 3
743 771 3
744 745 3
744 772 3
745 746 4
745 773 1
746 747 5
746 774 1
747 748 2
747 775 3
748 749 2
748 776 3
749 750 1
749 777 3
750 751 4
750 778 1
751 752 5
751 779 2
752 753 4
752 780 3
753 754 3
753 781 5
754 755 5
754 782 4
755 756 4
755 783 5
756 784 4
757 758 5
758 759 5
759 760 3
760 761 4
761 762 5
762 763 4
763 764 2
764 765 3
765 766 4
766 767 1
767 768 3
768 769 1
769 770 4
770 771 2
771 772 3
772 773 3
773 774 4
774 775 2
775 776 1
776 777 4
777 778 4
778 779 1
779 780 5
780 781 5
781 782 1
782 783 4
783 784 1
1 757 4
2 758 2
3 759 2
4 760 2
5 761 5
6 762 2
7 763 5
8 764 5
9 765 1
10 766 2
11 767 1
12 768 5
13 769 1
14 770 3
15 771 4
16 772 1
17 773 1
18 774 3
19 775 3
20 776 5
21 777 4
22 778 5
23 779 1
24 780 1
25 781 3
26 782 2
27 783 1
28 784 2
1 28 1
29 56 2
57 84 4
85 112 2
113 140 4
141 168 4
169 196 2
197 224 3
225 252 1
253 280 1
281 308 4
309 336 3
337 364 4
365 392 4
393 420 1
421 448 3
449 476 5
477 504 2
505 532 1
533 560 2
561 588 3
589 616 4
617 644 4
645 672 5
673 700 4
701 728 5
729 756 2
757 784 2
